5 5
3 74 0 67 4 11 2 11 1 16
1 38 4 30 3 41 2 1 0 38
0 98 4 60 1 19 2 98 3 59
1 68 2 10 0 17 3 80 4 85
3 92 1 72 0 29 4 6 2 94
-1
0 2 3 4 5
0 2 3 4 5
0 1 2 3 5
0 1 5
0 3 5
-2
146 186 189 230
108 137 124 197
118 246 189 497
107 261
274 325

408 5
10 1 17 9 22
5 15 12 4 21
16 8 3 13 24
0 7 20 18 14
6 11 2 23 19
